max

obj:

+70.35 x0
+65.36 x1
+90.98 x2
+127.31 x3
+59.42 x4
+29.97 x5
+28.86 x6
+22.51 x7
+0.09 x8
+99.65 x10
+119.15 x11
+121.3 x12
+118.27 x13
+94.44 x14
+76.62 x15
+87.83 x16
+86.31 x17
+44.92 x18
+2.03 x19
-1.56 x20
-0.69 x24
+0.91 x26
+42.72 x27
+33.92 x28
+32.59 x29
+35.15 x30
+35.09 x31
+35.82 x32
+35.83 x33
+68.9 x34
+26.47 x35
+30.0 x36
+31.63 x37
+22.65 x38
+1.9 x39
+0.32 x40
-0.04 x41
-0.02 x42
-0.03 x43
-0.12 x44
-0.06 x45
+1.88 x46
+0.22 x47
+6.69 x48
+9.4 x49
+18.0 x50
+14.02 x51
-0.03 x52
-0.1 x53
-0.8 x54
-0.01 x55
-6.49 x56
-9.98 x57
-12.04 x58
-13.49 x59
+102.63 x60
+30.03 x61
+28.73 x62
+30.0 x63
+32.68 x64
+65.0 x65
+55.77 x66
+59.13 x67
+117.0 x68
+33.74 x69
+32.56 x70
+34.83 x71
+27.82 x72
+26.6 x73
+20.97 x74
+5.16 x75
+0.04 x76
-0.01 x77
-0.06 x78
+1.41 x79
-0.01 x80
+28.77 x81
+75.45 x82
+76.26 x83
+105.84 x84
+79.35 x85
+48.39 x86
+35.52 x87
+0.07 x88
-0.01 x89
+3.54 x90
+50.32 x91
+2.03 x92
+13.2 x93
+36.5 x94
+38.29 x95
+36.01 x96
+41.96 x97
-2.06 x98
+80.0 x99
+100.0 x100
+19.44 x101
+39.71 x102
-14.99 x103
+69.9 x104
+74.71 x105
+161.41 x106
+218.92 x107
+81.31 x108
+73.11 x109
+82.8 x110
+46.83 x111
+40.63 x112
+39.35 x113
+17.72 x114
+0.16 x115
-4.95 x116
-5.35 x117
+4.06 x118
-0.01 x119
-0.09 x120
-0.08 x121
-0.8 x122
-4.13 x123
-0.03 x124
-8.15 x125
-0.99 x126
+67.99 x127
-0.02 x128
-0.34 x129
-1.39 x130
+25.01 x131
+80.02 x132
+12.73 x133
+90.02 x134
+84.8 x135
+82.69 x136
+84.13 x137
+91.21 x138
+51.8 x139
+93.91 x140
+9.52 x141
+0.04 x142
-0.07 x143
-0.16 x144
-0.04 x145
+94.39 x146
+126.58 x147
+117.85 x148
+111.24 x149
+82.51 x150
+89.92 x151
+105.09 x152
+141.92 x153
+133.07 x154
+102.44 x155
+108.2 x156
+113.47 x157
+143.24 x158
+68.99 x159
+61.59 x160
+16.49 x161
+17.21 x162
+44.99 x163
+156.2 x164
+195.42 x165
+131.84 x166
+85.2 x167
+83.4 x168
+67.33 x169
+45.96 x170
+80.0 x171
+89.0 x172
+78.93 x173
-0.2 x174
+9.64 x175
+4.92 x176
+4.06 x177
+4.75 x178
+5.01 x179
+60.47 x180
+22.28 x181
+26.21 x182
+3.78 x183
+0.65 x184
+0.06 x187
+36.58 x188
+20.91 x189
+2.06 x190
+7.63 x191
+21.96 x192
+32.72 x193
+34.99 x194
+34.96 x195
+48.99 x196
+48.64 x197
+48.74 x198
+92.91 x199
+122.54 x200
+94.03 x201
+52.89 x202
+57.8 x203
+80.07 x204
+78.4 x205
+81.43 x206
+81.51 x207
+100.1 x208
+117.01 x209
+65.86 x210
+72.1 x211
+72.0 x212
+72.33 x213
+77.1 x214
+103.0 x215
+126.54 x216
+141.42 x217
+116.27 x218
+100.09 x219
+85.0 x220
+75.82 x221
+79.07 x222
+107.1 x223
+131.97 x224
+149.02 x225
+123.7 x226
+99.9 x227
+84.64 x228
+81.4 x229
+138.07 x230
+70.42 x231
+60.06 x232
+82.78 x233
+106.3 x234
+97.22 x235
+72.98 x236
+59.37 x237
+58.69 x238
+51.71 x239
+47.8 x240
+45.73 x241
+43.2 x242
+117.2 x243
+188.49 x244
+188.53 x245
+121.98 x246
+99.93 x247
+91.91 x248
+93.13 x249
+114.0 x250
+144.0 x251
+153.09 x252
+114.41 x253
+94.9 x254
+86.6 x255
+67.6 x256
+60.0 x257
+57.48 x258
+54.32 x259
+57.32 x260
+63.87 x261
+86.7 x262
+110.8 x263
+110.98 x264
+87.0 x265
+117.45 x266
+122.53 x267
+127.12 x268
+111.05 x269
+95.8 x270
+95.1 x271
+70.35 x272
+35.0 x273
+227.92 x274
+32.53 x275
+59.42 x276
+39.0 x277
+38.0 x278
+38.0 x279
+22.5 x280
+18.0 x281
+268.06 x282
+119.15 x283
+469.19 x284
+207.79 x285
+469.19 x286
+844.38 x287
+32.0 x288
+241.35 x289
+25.0 x290
+2.03 x291
-1.56 x292
+32.0 x294
+32.0 x295
+26.0 x296
+33.0 x297
+40.83 x298
+200.46 x299
+40.0 x300
+37.0 x301
+35.15 x302
+35.09 x303
+35.82 x304
+35.83 x305
+34.5 x306
+26.47 x307
+32.0 x308
+34.0 x309
+31.0 x310
+33.0 x311
+22.0 x312
+8.0 x313
+8.0 x314
+7.0 x315
-4.0 x316
+28.0 x317
+28.0 x318
+30.0 x319
+25.0 x320
+19.0 x321
+20.0 x324
+20.0 x325
+19.2 x326
+6.7 x327
-9.5 x328
-9.98 x329
-12.04 x330
+3.35 x331
+33.0 x332
+36.0 x333
+33.0 x334
+31.95 x335
+32.68 x336
+578.4 x337
+181.34 x338
+59.13 x339
+201.1 x340
+45.0 x341
+42.0 x342
+34.83 x343
+32.88 x344
+34.0 x345
+30.02 x346
+5.16 x347
+17.0 x348
+31.35 x349
+23.76 x350
+25.0 x351
+34.0 x352
+38.5 x353
+75.45 x354
+268.06 x355
+105.84 x356
+30.0 x357
+221.15 x358
+22.0 x359
+0.07 x360
-0.01 x361
+26.61 x362
+147.43 x363
+28.54 x364
+24.0 x365
+17.0 x366
+408.64 x367
+241.26 x368
+41.96 x369
-6.03 x370
+201.03 x371
+39.0 x372
+28.6 x373
+39.71 x374
-14.99 x375
+69.9 x376
+49.0 x377
+670.05 x378
+479.86 x379
+44.0 x380
+73.11 x381
+82.8 x382
+46.83 x383
+31.52 x384
+63.0 x385
+17.72 x386
+22.49 x387
+7.86 x388
-5.35 x389
+10.0 x390
-0.01 x391
+6.0 x392
+5.5 x393
+5.5 x394
+5.0 x395
+7.5 x396
+4.0 x397
+5.0 x398
+67.99 x399
-0.02 x400
-3.02 x401
+1.0 x402
+40.0 x403
+109.43 x404
+26.0 x405
+213.44 x406
+84.8 x407
+254.77 x408
+84.13 x409
+91.21 x410
+321.7 x411
+93.91 x412
+9.52 x413
+0.04 x414
-1.0 x415
-3.0 x416
-3.0 x417
+201.0 x418
+268.0 x419
+117.85 x420
+111.24 x421
+82.51 x422
+89.92 x423
+105.09 x424
+141.92 x425
+133.07 x426
+18.0 x427
+108.2 x428
+113.47 x429
+199.35 x430
+68.99 x431
+61.59 x432
+7.0 x433
+17.21 x434
+16.0 x435
+156.2 x436
+195.42 x437
+25.0 x438
+85.2 x439
+83.4 x440
+67.33 x441
+45.96 x442
+80.0 x443
+89.0 x444
+25.0 x445
-0.2 x446
+9.12 x447
+4.92 x448
+4.06 x449
+20.5 x450
+20.5 x451
+19.5 x452
+29.0 x453
+34.0 x454
-13.41 x455
-14.08 x456
-14.75 x457
-4.0 x458
-12.0 x459
+34.0 x460
+12.0 x461
-2.0 x462
-2.0 x463
+2.0 x464
+32.72 x465
+29.0 x466
+29.0 x467
+29.73 x468
+27.5 x469
+27.5 x470
+92.91 x471
+55.0 x472
+55.0 x473
+35.0 x474
+30.0 x475
+28.0 x476
+34.5 x477
+37.0 x478
+45.0 x479
+45.0 x480
+53.68 x481
+37.0 x482
+72.1 x483
+72.0 x484
+72.33 x485
+77.1 x486
+103.0 x487
+126.54 x488
+141.42 x489
+52.5 x490
+100.09 x491
+85.0 x492
+62.16 x493
+64.08 x494
+107.1 x495
+131.97 x496
+149.02 x497
+64.08 x498
+99.9 x499
+84.64 x500
+81.4 x501
+138.07 x502
+36.88 x503
+60.06 x504
+82.78 x505
+106.3 x506
+97.22 x507
+38.0 x508
+33.0 x509
+29.51 x510
+29.51 x511
+38.5 x512
+37.0 x513
+37.5 x514
+268.17 x515
+335.39 x516
+455.64 x517
+121.98 x518
+99.93 x519
+91.91 x520
+93.13 x521
+114.0 x522
+144.0 x523
+153.09 x524
+114.41 x525
+94.9 x526
+86.6 x527
+67.6 x528
+60.0 x529
+57.48 x530
+54.32 x531
+57.32 x532
+63.87 x533
+86.7 x534
+110.8 x535
+110.98 x536
+87.0 x537
+117.45 x538
+61.12 x539
+38.0 x540
+40.23 x541
+40.24 x542
+95.1 x543


s.t.

c0:
-1.0 x544
+1.0 x0
= 2.4790000915527344
c1:
-1.0 x544
+1.0 x1
= 2.441999912261963
c2:
-1.0 x544
+1.0 x2
= 2.2190001010894775
c3:
-1.0 x544
+1.0 x3
= 2.325000047683716
c4:
-1.0 x544
+1.0 x4
= 2.9769999980926514
c5:
+1.0 x5
-1.0 x544
= 3.5380001068115234
c6:
-1.0 x544
+1.0 x6
= 3.7200000286102295
c7:
-1.0 x544
+1.0 x7
= 3.9030001163482666
c8:
-1.0 x544
+1.0 x8
= 4.435999870300293
c9:
+1.0 x9
-1.0 x544
= 4.642000198364258
c10:
-1.0 x544
+1.0 x10
= 1.7300000190734863
c11:
+1.0 x11
-1.0 x544
= 1.6779999732971191
c12:
-1.0 x544
+1.0 x12
= 1.6929999589920044
c13:
+1.0 x13
-1.0 x544
= 1.7309999465942383
c14:
+1.0 x14
-1.0 x544
= 1.7380000352859497
c15:
-1.0 x544
+1.0 x15
= 1.8489999771118164
c16:
-1.0 x544
+1.0 x16
= 0.3370000123977661
c17:
-1.0 x544
+1.0 x17
= 0.23999999463558197
c18:
-1.0 x544
+1.0 x18
= 1.2519999742507935
c19:
-1.0 x544
+1.0 x19
= 1.409000039100647
c20:
-1.0 x544
+1.0 x20
= 1.8450000286102295
c21:
-1.0 x544
+1.0 x21
= 1.2380000352859497
c22:
+1.0 x22
-1.0 x544
= 1.2519999742507935
c23:
-1.0 x544
+1.0 x23
= 1.25600004196167
c24:
-1.0 x544
+1.0 x24
= 1.2309999465942383
c25:
-1.0 x544
+1.0 x25
= 1.194000005722046
c26:
-1.0 x544
+1.0 x26
= 1.1770000457763672
c27:
-1.0 x544
+1.0 x27
= 1.2630000114440918
c28:
+1.0 x28
-1.0 x544
= 3.621000051498413
c29:
+1.0 x29
-1.0 x544
= 3.9070000648498535
c30:
+1.0 x30
-1.0 x544
= 4.229000091552734
c31:
+1.0 x31
-1.0 x544
= 4.260000228881836
c32:
-1.0 x544
+1.0 x32
= 4.175000190734863
c33:
-1.0 x544
+1.0 x33
= 3.7320001125335693
c34:
-1.0 x544
+1.0 x34
= 1.1430000066757202
c35:
-1.0 x544
+1.0 x35
= 4.065000057220459
c36:
-1.0 x544
+1.0 x36
= 4.400000095367432
c37:
+1.0 x37
-1.0 x544
= 4.317999839782715
c38:
-1.0 x544
+1.0 x38
= 3.8350000381469727
c39:
+1.0 x39
-1.0 x544
= 3.365999937057495
c40:
-1.0 x544
+1.0 x40
= 1.1460000276565552
c41:
+1.0 x41
-1.0 x544
= 1.600000023841858
c42:
+1.0 x42
-1.0 x544
= 2.119999885559082
c43:
+1.0 x43
-1.0 x544
= 2.569000005722046
c44:
-1.0 x544
+1.0 x44
= 2.8429999351501465
c45:
-1.0 x544
+1.0 x45
= 3.7320001125335693
c46:
-1.0 x544
+1.0 x46
= 4.120999813079834
c47:
+1.0 x47
-1.0 x544
= 4.548999786376953
c48:
-1.0 x544
+1.0 x48
= 5.013999938964844
c49:
-1.0 x544
+1.0 x49
= 5.434000015258789
c50:
+1.0 x50
-1.0 x544
= 5.711999893188477
c51:
+1.0 x51
-1.0 x544
= 5.879000186920166
c52:
+1.0 x52
-1.0 x544
= 6.247000217437744
c53:
+1.0 x53
-1.0 x544
= 6.061999797821045
c54:
+1.0 x54
-1.0 x544
= 5.790999889373779
c55:
+1.0 x55
-1.0 x544
= 4.310999870300293
c56:
-1.0 x544
+1.0 x56
= 4.442999839782715
c57:
-1.0 x544
+1.0 x57
= 4.474999904632568
c58:
-1.0 x544
+1.0 x58
= 4.389999866485596
c59:
+1.0 x59
-1.0 x544
= 4.248000144958496
c60:
-1.0 x544
+1.0 x60
= 0.574999988079071
c61:
-1.0 x544
+1.0 x61
= 3.2990000247955322
c62:
+1.0 x62
-1.0 x544
= 3.4070000648498535
c63:
-1.0 x544
+1.0 x63
= 3.4860000610351562
c64:
-1.0 x544
+1.0 x64
= 3.4809999465942383
c65:
-1.0 x544
+1.0 x65
= 1.0199999809265137
c66:
-1.0 x544
+1.0 x66
= 0.8100000023841858
c67:
-1.0 x544
+1.0 x67
= 0.9470000267028809
c68:
-1.0 x544
+1.0 x68
= 0.7979999780654907
c69:
-1.0 x544
+1.0 x69
= 3.062000036239624
c70:
+1.0 x70
-1.0 x544
= 3.382999897003174
c71:
+1.0 x71
-1.0 x544
= 3.691999912261963
c72:
+1.0 x72
-1.0 x544
= 5.11899995803833
c73:
-1.0 x544
+1.0 x73
= 5.052000045776367
c74:
+1.0 x74
-1.0 x544
= 4.860000133514404
c75:
-1.0 x544
+1.0 x75
= 4.559999942779541
c76:
-1.0 x544
+1.0 x76
= 4.11899995803833
c77:
-1.0 x544
+1.0 x77
= 3.489000082015991
c78:
-1.0 x544
+1.0 x78
= 1.6119999885559082
c79:
-1.0 x544
+1.0 x79
= 1.1619999408721924
c80:
-1.0 x544
+1.0 x80
= 0.8510000109672546
c81:
-1.0 x544
+1.0 x81
= 0.6869999766349792
c82:
-1.0 x544
+1.0 x82
= 0.6800000071525574
c83:
+1.0 x83
-1.0 x544
= 0.8100000023841858
c84:
+1.0 x84
-1.0 x544
= 2.9790000915527344
c85:
+1.0 x85
-1.0 x544
= 3.867000102996826
c86:
-1.0 x544
+1.0 x86
= 3.5490000247955322
c87:
-1.0 x544
+1.0 x87
= 2.8959999084472656
c88:
-1.0 x544
+1.0 x88
= 3.055000066757202
c89:
-1.0 x544
+1.0 x89
= 3.075000047683716
c90:
-1.0 x544
+1.0 x90
= 2.739000082015991
c91:
-1.0 x544
+1.0 x91
= 1.0700000524520874
c92:
+1.0 x92
-1.0 x544
= 2.440000057220459
c93:
-1.0 x544
+1.0 x93
= 2.3980000019073486
c94:
-1.0 x544
+1.0 x94
= -0.0
c95:
+1.0 x95
-1.0 x544
= 0.5329999923706055
c96:
+1.0 x96
-1.0 x544
= 0.3659999966621399
c97:
+1.0 x97
-1.0 x544
= 0.2980000078678131
c98:
+1.0 x98
-1.0 x544
= 3.1040000915527344
c99:
+1.0 x99
-1.0 x544
= 0.9039999842643738
c100:
-1.0 x544
+1.0 x100
= 1.503000020980835
c101:
-1.0 x544
+1.0 x101
= 1.1549999713897705
c102:
-1.0 x544
+1.0 x102
= 1.0789999961853027
c103:
+1.0 x103
-1.0 x544
= 3.8529999256134033
c104:
+1.0 x104
-1.0 x544
= 0.38600000739097595
c105:
+1.0 x105
-1.0 x544
= 0.3490000069141388
c106:
+1.0 x106
-1.0 x544
= 0.4300000071525574
c107:
+1.0 x107
-1.0 x544
= 0.453000009059906
c108:
-1.0 x544
+1.0 x108
= 2.430999994277954
c109:
-1.0 x544
+1.0 x109
= 2.2699999809265137
c110:
+1.0 x110
-1.0 x544
= 2.0799999237060547
c111:
+1.0 x111
-1.0 x544
= 0.5189999938011169
c112:
+1.0 x112
-1.0 x544
= 0.574999988079071
c113:
+1.0 x113
-1.0 x544
= 0.6430000066757202
c114:
-1.0 x544
+1.0 x114
= 1.0870000123977661
c115:
-1.0 x544
+1.0 x115
= 2.3269999027252197
c116:
-1.0 x544
+1.0 x116
= 2.490000009536743
c117:
+1.0 x117
-1.0 x544
= 3.625999927520752
c118:
+1.0 x118
-1.0 x544
= 4.401000022888184
c119:
+1.0 x119
-1.0 x544
= 5.045000076293945
c120:
+1.0 x120
-1.0 x544
= 5.538000106811523
c121:
-1.0 x544
+1.0 x121
= 5.801000118255615
c122:
+1.0 x122
-1.0 x544
= 6.085000038146973
c123:
+1.0 x123
-1.0 x544
= 6.7129998207092285
c124:
+1.0 x124
-1.0 x544
= 6.736999988555908
c125:
-1.0 x544
+1.0 x125
= 2.9600000381469727
c126:
-1.0 x544
+1.0 x126
= 3.1429998874664307
c127:
+1.0 x127
-1.0 x544
= 3.246999979019165
c128:
+1.0 x128
-1.0 x544
= 1.715999960899353
c129:
+1.0 x129
-1.0 x544
= 1.7079999446868896
c130:
+1.0 x130
-1.0 x544
= 2.943000078201294
c131:
+1.0 x131
-1.0 x544
= 3.509999990463257
c132:
+1.0 x132
-1.0 x544
= 0.34599998593330383
c133:
+1.0 x133
-1.0 x544
= 0.45500001311302185
c134:
-1.0 x544
+1.0 x134
= 2.819000005722046
c135:
-1.0 x544
+1.0 x135
= 2.756999969482422
c136:
-1.0 x544
+1.0 x136
= 2.759000062942505
c137:
+1.0 x137
-1.0 x544
= 2.739000082015991
c138:
-1.0 x544
+1.0 x138
= 2.436000108718872
c139:
+1.0 x139
-1.0 x544
= 3.2699999809265137
c140:
-1.0 x544
+1.0 x140
= 1.909999966621399
c141:
-1.0 x544
+1.0 x141
= 3.2790000438690186
c142:
+1.0 x142
-1.0 x544
= 4.079999923706055
c143:
-1.0 x544
+1.0 x143
= 4.710999965667725
c144:
-1.0 x544
+1.0 x144
= 4.98199987411499
c145:
-1.0 x544
+1.0 x145
= 5.074999809265137
c146:
+1.0 x146
-1.0 x544
= 1.284999966621399
c147:
+1.0 x147
-1.0 x544
= 1.2120000123977661
c148:
-1.0 x544
+1.0 x148
= 1.1109999418258667
c149:
-1.0 x544
+1.0 x149
= 0.675000011920929
c150:
+1.0 x150
-1.0 x544
= 0.859000027179718
c151:
+1.0 x151
-1.0 x544
= 0.8920000195503235
c152:
+1.0 x152
-1.0 x544
= 0.8360000252723694
c153:
-1.0 x544
+1.0 x153
= 0.699999988079071
c154:
+1.0 x154
-1.0 x544
= 0.5070000290870667
c155:
+1.0 x155
-1.0 x544
= 0.29100000858306885
c156:
+1.0 x156
-1.0 x544
= 0.6819999814033508
c157:
-1.0 x544
+1.0 x157
= 0.5400000214576721
c158:
-1.0 x544
+1.0 x158
= 0.4869999885559082
c159:
-1.0 x544
+1.0 x159
= 0.7409999966621399
c160:
+1.0 x160
-1.0 x544
= 0.6209999918937683
c161:
+1.0 x161
-1.0 x544
= 3.746999979019165
c162:
+1.0 x162
-1.0 x544
= 3.861999988555908
c163:
+1.0 x163
-1.0 x544
= 2.9260001182556152
c164:
+1.0 x164
-1.0 x544
= 1.649999976158142
c165:
+1.0 x165
-1.0 x544
= 1.2489999532699585
c166:
+1.0 x166
-1.0 x544
= 0.9789999723434448
c167:
+1.0 x167
-1.0 x544
= 1.6469999551773071
c168:
+1.0 x168
-1.0 x544
= 1.9550000429153442
c169:
+1.0 x169
-1.0 x544
= 2.1549999713897705
c170:
+1.0 x170
-1.0 x544
= 2.190000057220459
c171:
-1.0 x544
+1.0 x171
= 0.6899999976158142
c172:
-1.0 x544
+1.0 x172
= 0.6589999794960022
c173:
-1.0 x544
+1.0 x173
= 0.703000009059906
c174:
+1.0 x174
-1.0 x544
= 0.9110000133514404
c175:
+1.0 x175
-1.0 x544
= 0.6579999923706055
c176:
+1.0 x176
-1.0 x544
= 0.7279999852180481
c177:
-1.0 x544
+1.0 x177
= 0.6710000038146973
c178:
-1.0 x544
+1.0 x178
= 0.671999990940094
c179:
+1.0 x179
-1.0 x544
= 0.7239999771118164
c180:
-1.0 x544
+1.0 x180
= 1.1059999465942383
c181:
-1.0 x544
+1.0 x181
= 4.249000072479248
c182:
-1.0 x544
+1.0 x182
= 4.270999908447266
c183:
+1.0 x183
-1.0 x544
= 4.479000091552734
c184:
-1.0 x544
+1.0 x184
= 4.585999965667725
c185:
-1.0 x544
+1.0 x185
= 4.63100004196167
c186:
+1.0 x186
-1.0 x544
= 4.5269999504089355
c187:
+1.0 x187
-1.0 x544
= 4.379000186920166
c188:
+1.0 x188
-1.0 x544
= 4.156000137329102
c189:
-1.0 x544
+1.0 x189
= 4.716000080108643
c190:
-1.0 x544
+1.0 x190
= 5.453000068664551
c191:
-1.0 x544
+1.0 x191
= 5.7129998207092285
c192:
-1.0 x544
+1.0 x192
= 5.775000095367432
c193:
-1.0 x544
+1.0 x193
= 5.7789998054504395
c194:
-1.0 x544
+1.0 x194
= 6.130000114440918
c195:
+1.0 x195
-1.0 x544
= 6.014999866485596
c196:
-1.0 x544
+1.0 x196
= 3.131999969482422
c197:
+1.0 x197
-1.0 x544
= 3.0450000762939453
c198:
-1.0 x544
+1.0 x198
= 2.878999948501587
c199:
-1.0 x544
+1.0 x199
= 2.4079999923706055
c200:
-1.0 x544
+1.0 x200
= 2.2739999294281006
c201:
-1.0 x544
+1.0 x201
= 2.2709999084472656
c202:
+1.0 x202
-1.0 x544
= 2.359999895095825
c203:
-1.0 x544
+1.0 x203
= 2.3489999771118164
c204:
-1.0 x544
+1.0 x204
= 2.3359999656677246
c205:
-1.0 x544
+1.0 x205
= 2.257999897003174
c206:
-1.0 x544
+1.0 x206
= 2.23799991607666
c207:
-1.0 x544
+1.0 x207
= 2.1589999198913574
c208:
+1.0 x208
-1.0 x544
= 2.003999948501587
c209:
-1.0 x544
+1.0 x209
= 1.8569999933242798
c210:
+1.0 x210
-1.0 x544
= 1.9589999914169312
c211:
-1.0 x544
+1.0 x211
= 0.3540000021457672
c212:
+1.0 x212
-1.0 x544
= 0.3089999854564667
c213:
+1.0 x213
-1.0 x544
= 0.2770000100135803
c214:
+1.0 x214
-1.0 x544
= 0.25
c215:
+1.0 x215
-1.0 x544
= 0.2070000022649765
c216:
-1.0 x544
+1.0 x216
= 0.14800000190734863
c217:
-1.0 x544
+1.0 x217
= 0.09700000286102295
c218:
+1.0 x218
-1.0 x544
= 0.03799999877810478
c219:
+1.0 x219
-1.0 x544
= -0.0
c220:
+1.0 x220
-1.0 x544
= -0.0
c221:
+1.0 x221
-1.0 x544
= -0.0
c222:
+1.0 x222
-1.0 x544
= -0.0
c223:
+1.0 x223
-1.0 x544
= 0.01899999938905239
c224:
+1.0 x224
-1.0 x544
= 0.05900000035762787
c225:
+1.0 x225
-1.0 x544
= 0.09799999743700027
c226:
+1.0 x226
-1.0 x544
= 0.1420000046491623
c227:
+1.0 x227
-1.0 x544
= 0.20600000023841858
c228:
+1.0 x228
-1.0 x544
= 0.20399999618530273
c229:
+1.0 x229
-1.0 x544
= 0.1860000044107437
c230:
-1.0 x544
+1.0 x230
= 0.34299999475479126
c231:
+1.0 x231
-1.0 x544
= 0.9340000152587891
c232:
+1.0 x232
-1.0 x544
= 0.781000018119812
c233:
-1.0 x544
+1.0 x233
= 1.3420000076293945
c234:
+1.0 x234
-1.0 x544
= 1.5529999732971191
c235:
+1.0 x235
-1.0 x544
= 1.7899999618530273
c236:
+1.0 x236
-1.0 x544
= 2.0190000534057617
c237:
+1.0 x237
-1.0 x544
= 2.2109999656677246
c238:
+1.0 x238
-1.0 x544
= 2.3350000381469727
c239:
-1.0 x544
+1.0 x239
= 2.4760000705718994
c240:
-1.0 x544
+1.0 x240
= 4.372000217437744
c241:
-1.0 x544
+1.0 x241
= 4.261000156402588
c242:
-1.0 x544
+1.0 x242
= 3.9779999256134033
c243:
-1.0 x544
+1.0 x243
= 2.2660000324249268
c244:
+1.0 x244
-1.0 x544
= 2.1089999675750732
c245:
-1.0 x544
+1.0 x245
= 2.0450000762939453
c246:
+1.0 x246
-1.0 x544
= 2.0
c247:
+1.0 x247
-1.0 x544
= 1.9490000009536743
c248:
+1.0 x248
-1.0 x544
= 1.8519999980926514
c249:
+1.0 x249
-1.0 x544
= 1.9910000562667847
c250:
-1.0 x544
+1.0 x250
= 1.906999945640564
c251:
-1.0 x544
+1.0 x251
= 1.8910000324249268
c252:
+1.0 x252
-1.0 x544
= 1.9270000457763672
c253:
+1.0 x253
-1.0 x544
= 1.9639999866485596
c254:
+1.0 x254
-1.0 x544
= 2.000999927520752
c255:
-1.0 x544
+1.0 x255
= 1.9989999532699585
c256:
+1.0 x256
-1.0 x544
= 1.8730000257492065
c257:
+1.0 x257
-1.0 x544
= 1.003999948501587
c258:
+1.0 x258
-1.0 x544
= 0.9729999899864197
c259:
+1.0 x259
-1.0 x544
= 0.9559999704360962
c260:
+1.0 x260
-1.0 x544
= 0.9449999928474426
c261:
+1.0 x261
-1.0 x544
= 0.9700000286102295
c262:
-1.0 x544
+1.0 x262
= 1.0169999599456787
c263:
+1.0 x263
-1.0 x544
= 1.0449999570846558
c264:
-1.0 x544
+1.0 x264
= 1.0479999780654907
c265:
+1.0 x265
-1.0 x544
= 1.0360000133514404
c266:
+1.0 x266
-1.0 x544
= 1.1339999437332153
c267:
+1.0 x267
-1.0 x544
= 1.1089999675750732
c268:
+1.0 x268
-1.0 x544
= 1.0609999895095825
c269:
+1.0 x269
-1.0 x544
= 0.9959999918937683
c270:
+1.0 x270
-1.0 x544
= 0.9399999976158142
c271:
+1.0 x271
-1.0 x544
= 0.8429999947547913
c272:
+1.0 x544
<= -0.0


bounds

+0.0 <=  x0 <= +7.2
+0.0 <=  x1 <= +7.2
+0.0 <=  x2 <= +7.2
+0.0 <=  x3 <= +7.2
+0.0 <=  x4 <= +7.2
+0.0 <=  x5 <= +7.2
+0.0 <=  x6 <= +7.2
+0.0 <=  x7 <= +7.2
+0.0 <=  x8 <= +7.2
+0.0 <=  x9 <= +7.2
+0.0 <=  x10 <= +7.2
+0.0 <=  x11 <= +7.2
+0.0 <=  x12 <= +7.2
+0.0 <=  x13 <= +7.2
+0.0 <=  x14 <= +7.2
+0.0 <=  x15 <= +7.2
+0.0 <=  x16 <= +7.2
+0.0 <=  x17 <= +7.2
+0.0 <=  x18 <= +7.2
+0.0 <=  x19 <= +7.2
+0.0 <=  x20 <= +7.2
+0.0 <=  x21 <= +7.2
+0.0 <=  x22 <= +7.2
+0.0 <=  x23 <= +7.2
+0.0 <=  x24 <= +7.2
+0.0 <=  x25 <= +7.2
+0.0 <=  x26 <= +7.2
+0.0 <=  x27 <= +7.2
+0.0 <=  x28 <= +7.2
+0.0 <=  x29 <= +7.2
+0.0 <=  x30 <= +7.2
+0.0 <=  x31 <= +7.2
+0.0 <=  x32 <= +7.2
+0.0 <=  x33 <= +7.2
+0.0 <=  x34 <= +7.2
+0.0 <=  x35 <= +7.2
+0.0 <=  x36 <= +7.2
+0.0 <=  x37 <= +7.2
+0.0 <=  x38 <= +7.2
+0.0 <=  x39 <= +7.2
+0.0 <=  x40 <= +7.2
+0.0 <=  x41 <= +7.2
+0.0 <=  x42 <= +7.2
+0.0 <=  x43 <= +7.2
+0.0 <=  x44 <= +7.2
+0.0 <=  x45 <= +7.2
+0.0 <=  x46 <= +7.2
+0.0 <=  x47 <= +7.2
+0.0 <=  x48 <= +7.2
+0.0 <=  x49 <= +7.2
+0.0 <=  x50 <= +7.2
+0.0 <=  x51 <= +7.2
+0.0 <=  x52 <= +7.2
+0.0 <=  x53 <= +7.2
+0.0 <=  x54 <= +7.2
+0.0 <=  x55 <= +7.2
+0.0 <=  x56 <= +7.2
+0.0 <=  x57 <= +7.2
+0.0 <=  x58 <= +7.2
+0.0 <=  x59 <= +7.2
+0.0 <=  x60 <= +7.2
+0.0 <=  x61 <= +7.2
+0.0 <=  x62 <= +7.2
+0.0 <=  x63 <= +7.2
+0.0 <=  x64 <= +7.2
+0.0 <=  x65 <= +7.2
+0.0 <=  x66 <= +7.2
+0.0 <=  x67 <= +7.2
+0.0 <=  x68 <= +7.2
+0.0 <=  x69 <= +7.2
+0.0 <=  x70 <= +7.2
+0.0 <=  x71 <= +7.2
+0.0 <=  x72 <= +7.2
+0.0 <=  x73 <= +7.2
+0.0 <=  x74 <= +7.2
+0.0 <=  x75 <= +7.2
+0.0 <=  x76 <= +7.2
+0.0 <=  x77 <= +7.2
+0.0 <=  x78 <= +7.2
+0.0 <=  x79 <= +7.2
+0.0 <=  x80 <= +7.2
+0.0 <=  x81 <= +7.2
+0.0 <=  x82 <= +7.2
+0.0 <=  x83 <= +7.2
+0.0 <=  x84 <= +7.2
+0.0 <=  x85 <= +7.2
+0.0 <=  x86 <= +7.2
+0.0 <=  x87 <= +7.2
+0.0 <=  x88 <= +7.2
+0.0 <=  x89 <= +7.2
+0.0 <=  x90 <= +7.2
+0.0 <=  x91 <= +7.2
+0.0 <=  x92 <= +7.2
+0.0 <=  x93 <= +7.2
+0.0 <=  x94 <= +7.2
+0.0 <=  x95 <= +7.2
+0.0 <=  x96 <= +7.2
+0.0 <=  x97 <= +7.2
+0.0 <=  x98 <= +7.2
+0.0 <=  x99 <= +7.2
+0.0 <=  x100 <= +7.2
+0.0 <=  x101 <= +7.2
+0.0 <=  x102 <= +7.2
+0.0 <=  x103 <= +7.2
+0.0 <=  x104 <= +7.2
+0.0 <=  x105 <= +7.2
+0.0 <=  x106 <= +7.2
+0.0 <=  x107 <= +7.2
+0.0 <=  x108 <= +7.2
+0.0 <=  x109 <= +7.2
+0.0 <=  x110 <= +7.2
+0.0 <=  x111 <= +7.2
+0.0 <=  x112 <= +7.2
+0.0 <=  x113 <= +7.2
+0.0 <=  x114 <= +7.2
+0.0 <=  x115 <= +7.2
+0.0 <=  x116 <= +7.2
+0.0 <=  x117 <= +7.2
+0.0 <=  x118 <= +7.2
+0.0 <=  x119 <= +7.2
+0.0 <=  x120 <= +7.2
+0.0 <=  x121 <= +7.2
+0.0 <=  x122 <= +7.2
+0.0 <=  x123 <= +7.2
+0.0 <=  x124 <= +7.2
+0.0 <=  x125 <= +7.2
+0.0 <=  x126 <= +7.2
+0.0 <=  x127 <= +7.2
+0.0 <=  x128 <= +7.2
+0.0 <=  x129 <= +7.2
+0.0 <=  x130 <= +7.2
+0.0 <=  x131 <= +7.2
+0.0 <=  x132 <= +7.2
+0.0 <=  x133 <= +7.2
+0.0 <=  x134 <= +7.2
+0.0 <=  x135 <= +7.2
+0.0 <=  x136 <= +7.2
+0.0 <=  x137 <= +7.2
+0.0 <=  x138 <= +7.2
+0.0 <=  x139 <= +7.2
+0.0 <=  x140 <= +7.2
+0.0 <=  x141 <= +7.2
+0.0 <=  x142 <= +7.2
+0.0 <=  x143 <= +7.2
+0.0 <=  x144 <= +7.2
+0.0 <=  x145 <= +7.2
+0.0 <=  x146 <= +7.2
+0.0 <=  x147 <= +7.2
+0.0 <=  x148 <= +7.2
+0.0 <=  x149 <= +7.2
+0.0 <=  x150 <= +7.2
+0.0 <=  x151 <= +7.2
+0.0 <=  x152 <= +7.2
+0.0 <=  x153 <= +7.2
+0.0 <=  x154 <= +7.2
+0.0 <=  x155 <= +7.2
+0.0 <=  x156 <= +7.2
+0.0 <=  x157 <= +7.2
+0.0 <=  x158 <= +7.2
+0.0 <=  x159 <= +7.2
+0.0 <=  x160 <= +7.2
+0.0 <=  x161 <= +7.2
+0.0 <=  x162 <= +7.2
+0.0 <=  x163 <= +7.2
+0.0 <=  x164 <= +7.2
+0.0 <=  x165 <= +7.2
+0.0 <=  x166 <= +7.2
+0.0 <=  x167 <= +7.2
+0.0 <=  x168 <= +7.2
+0.0 <=  x169 <= +7.2
+0.0 <=  x170 <= +7.2
+0.0 <=  x171 <= +7.2
+0.0 <=  x172 <= +7.2
+0.0 <=  x173 <= +7.2
+0.0 <=  x174 <= +7.2
+0.0 <=  x175 <= +7.2
+0.0 <=  x176 <= +7.2
+0.0 <=  x177 <= +7.2
+0.0 <=  x178 <= +7.2
+0.0 <=  x179 <= +7.2
+0.0 <=  x180 <= +7.2
+0.0 <=  x181 <= +7.2
+0.0 <=  x182 <= +7.2
+0.0 <=  x183 <= +7.2
+0.0 <=  x184 <= +7.2
+0.0 <=  x185 <= +7.2
+0.0 <=  x186 <= +7.2
+0.0 <=  x187 <= +7.2
+0.0 <=  x188 <= +7.2
+0.0 <=  x189 <= +7.2
+0.0 <=  x190 <= +7.2
+0.0 <=  x191 <= +7.2
+0.0 <=  x192 <= +7.2
+0.0 <=  x193 <= +7.2
+0.0 <=  x194 <= +7.2
+0.0 <=  x195 <= +7.2
+0.0 <=  x196 <= +7.2
+0.0 <=  x197 <= +7.2
+0.0 <=  x198 <= +7.2
+0.0 <=  x199 <= +7.2
+0.0 <=  x200 <= +7.2
+0.0 <=  x201 <= +7.2
+0.0 <=  x202 <= +7.2
+0.0 <=  x203 <= +7.2
+0.0 <=  x204 <= +7.2
+0.0 <=  x205 <= +7.2
+0.0 <=  x206 <= +7.2
+0.0 <=  x207 <= +7.2
+0.0 <=  x208 <= +7.2
+0.0 <=  x209 <= +7.2
+0.0 <=  x210 <= +7.2
+0.0 <=  x211 <= +7.2
+0.0 <=  x212 <= +7.2
+0.0 <=  x213 <= +7.2
+0.0 <=  x214 <= +7.2
+0.0 <=  x215 <= +7.2
+0.0 <=  x216 <= +7.2
+0.0 <=  x217 <= +7.2
+0.0 <=  x218 <= +7.2
+0.0 <=  x219 <= +7.2
+0.0 <=  x220 <= +7.2
+0.0 <=  x221 <= +7.2
+0.0 <=  x222 <= +7.2
+0.0 <=  x223 <= +7.2
+0.0 <=  x224 <= +7.2
+0.0 <=  x225 <= +7.2
+0.0 <=  x226 <= +7.2
+0.0 <=  x227 <= +7.2
+0.0 <=  x228 <= +7.2
+0.0 <=  x229 <= +7.2
+0.0 <=  x230 <= +7.2
+0.0 <=  x231 <= +7.2
+0.0 <=  x232 <= +7.2
+0.0 <=  x233 <= +7.2
+0.0 <=  x234 <= +7.2
+0.0 <=  x235 <= +7.2
+0.0 <=  x236 <= +7.2
+0.0 <=  x237 <= +7.2
+0.0 <=  x238 <= +7.2
+0.0 <=  x239 <= +7.2
+0.0 <=  x240 <= +7.2
+0.0 <=  x241 <= +7.2
+0.0 <=  x242 <= +7.2
+0.0 <=  x243 <= +7.2
+0.0 <=  x244 <= +7.2
+0.0 <=  x245 <= +7.2
+0.0 <=  x246 <= +7.2
+0.0 <=  x247 <= +7.2
+0.0 <=  x248 <= +7.2
+0.0 <=  x249 <= +7.2
+0.0 <=  x250 <= +7.2
+0.0 <=  x251 <= +7.2
+0.0 <=  x252 <= +7.2
+0.0 <=  x253 <= +7.2
+0.0 <=  x254 <= +7.2
+0.0 <=  x255 <= +7.2
+0.0 <=  x256 <= +7.2
+0.0 <=  x257 <= +7.2
+0.0 <=  x258 <= +7.2
+0.0 <=  x259 <= +7.2
+0.0 <=  x260 <= +7.2
+0.0 <=  x261 <= +7.2
+0.0 <=  x262 <= +7.2
+0.0 <=  x263 <= +7.2
+0.0 <=  x264 <= +7.2
+0.0 <=  x265 <= +7.2
+0.0 <=  x266 <= +7.2
+0.0 <=  x267 <= +7.2
+0.0 <=  x268 <= +7.2
+0.0 <=  x269 <= +7.2
+0.0 <=  x270 <= +7.2
+0.0 <=  x271 <= +7.2
-7.2 <=  x272 <= +7.2
-7.2 <=  x273 <= +7.2
-7.2 <=  x274 <= +7.2
-7.2 <=  x275 <= +7.2
-7.2 <=  x276 <= +7.2
-7.2 <=  x277 <= +7.2
-7.2 <=  x278 <= +7.2
-7.2 <=  x279 <= +7.2
-7.2 <=  x280 <= +7.2
-7.2 <=  x281 <= +7.2
-7.2 <=  x282 <= +7.2
-7.2 <=  x283 <= +7.2
-7.2 <=  x284 <= +7.2
-7.2 <=  x285 <= +7.2
-7.2 <=  x286 <= +7.2
-7.2 <=  x287 <= +7.2
-7.2 <=  x288 <= +7.2
-7.2 <=  x289 <= +7.2
-7.2 <=  x290 <= +7.2
-7.2 <=  x291 <= +7.2
-7.2 <=  x292 <= +7.2
-7.2 <=  x293 <= +7.2
-7.2 <=  x294 <= +7.2
-7.2 <=  x295 <= +7.2
-7.2 <=  x296 <= +7.2
-7.2 <=  x297 <= +7.2
-7.2 <=  x298 <= +7.2
-7.2 <=  x299 <= +7.2
-7.2 <=  x300 <= +7.2
-7.2 <=  x301 <= +7.2
-7.2 <=  x302 <= +7.2
-7.2 <=  x303 <= +7.2
-7.2 <=  x304 <= +7.2
-7.2 <=  x305 <= +7.2
-7.2 <=  x306 <= +7.2
-7.2 <=  x307 <= +7.2
-7.2 <=  x308 <= +7.2
-7.2 <=  x309 <= +7.2
-7.2 <=  x310 <= +7.2
-7.2 <=  x311 <= +7.2
-7.2 <=  x312 <= +7.2
-7.2 <=  x313 <= +7.2
-7.2 <=  x314 <= +7.2
-7.2 <=  x315 <= +7.2
-7.2 <=  x316 <= +7.2
-7.2 <=  x317 <= +7.2
-7.2 <=  x318 <= +7.2
-7.2 <=  x319 <= +7.2
-7.2 <=  x320 <= +7.2
-7.2 <=  x321 <= +7.2
-7.2 <=  x322 <= +7.2
-7.2 <=  x323 <= +7.2
-7.2 <=  x324 <= +7.2
-7.2 <=  x325 <= +7.2
-7.2 <=  x326 <= +7.2
-7.2 <=  x327 <= +7.2
-7.2 <=  x328 <= +7.2
-7.2 <=  x329 <= +7.2
-7.2 <=  x330 <= +7.2
-7.2 <=  x331 <= +7.2
-7.2 <=  x332 <= +7.2
-7.2 <=  x333 <= +7.2
-7.2 <=  x334 <= +7.2
-7.2 <=  x335 <= +7.2
-7.2 <=  x336 <= +7.2
-7.2 <=  x337 <= +7.2
-7.2 <=  x338 <= +7.2
-7.2 <=  x339 <= +7.2
-7.2 <=  x340 <= +7.2
-7.2 <=  x341 <= +7.2
-7.2 <=  x342 <= +7.2
-7.2 <=  x343 <= +7.2
-7.2 <=  x344 <= +7.2
-7.2 <=  x345 <= +7.2
-7.2 <=  x346 <= +7.2
-7.2 <=  x347 <= +7.2
-7.2 <=  x348 <= +7.2
-7.2 <=  x349 <= +7.2
-7.2 <=  x350 <= +7.2
-7.2 <=  x351 <= +7.2
-7.2 <=  x352 <= +7.2
-7.2 <=  x353 <= +7.2
-7.2 <=  x354 <= +7.2
-7.2 <=  x355 <= +7.2
-7.2 <=  x356 <= +7.2
-7.2 <=  x357 <= +7.2
-7.2 <=  x358 <= +7.2
-7.2 <=  x359 <= +7.2
-7.2 <=  x360 <= +7.2
-7.2 <=  x361 <= +7.2
-7.2 <=  x362 <= +7.2
-7.2 <=  x363 <= +7.2
-7.2 <=  x364 <= +7.2
-7.2 <=  x365 <= +7.2
-7.2 <=  x366 <= +7.2
-7.2 <=  x367 <= +7.2
-7.2 <=  x368 <= +7.2
-7.2 <=  x369 <= +7.2
-7.2 <=  x370 <= +7.2
-7.2 <=  x371 <= +7.2
-7.2 <=  x372 <= +7.2
-7.2 <=  x373 <= +7.2
-7.2 <=  x374 <= +7.2
-7.2 <=  x375 <= +7.2
-7.2 <=  x376 <= +7.2
-7.2 <=  x377 <= +7.2
-7.2 <=  x378 <= +7.2
-7.2 <=  x379 <= +7.2
-7.2 <=  x380 <= +7.2
-7.2 <=  x381 <= +7.2
-7.2 <=  x382 <= +7.2
-7.2 <=  x383 <= +7.2
-7.2 <=  x384 <= +7.2
-7.2 <=  x385 <= +7.2
-7.2 <=  x386 <= +7.2
-7.2 <=  x387 <= +7.2
-7.2 <=  x388 <= +7.2
-7.2 <=  x389 <= +7.2
-7.2 <=  x390 <= +7.2
-7.2 <=  x391 <= +7.2
-7.2 <=  x392 <= +7.2
-7.2 <=  x393 <= +7.2
-7.2 <=  x394 <= +7.2
-7.2 <=  x395 <= +7.2
-7.2 <=  x396 <= +7.2
-7.2 <=  x397 <= +7.2
-7.2 <=  x398 <= +7.2
-7.2 <=  x399 <= +7.2
-7.2 <=  x400 <= +7.2
-7.2 <=  x401 <= +7.2
-7.2 <=  x402 <= +7.2
-7.2 <=  x403 <= +7.2
-7.2 <=  x404 <= +7.2
-7.2 <=  x405 <= +7.2
-7.2 <=  x406 <= +7.2
-7.2 <=  x407 <= +7.2
-7.2 <=  x408 <= +7.2
-7.2 <=  x409 <= +7.2
-7.2 <=  x410 <= +7.2
-7.2 <=  x411 <= +7.2
-7.2 <=  x412 <= +7.2
-7.2 <=  x413 <= +7.2
-7.2 <=  x414 <= +7.2
-7.2 <=  x415 <= +7.2
-7.2 <=  x416 <= +7.2
-7.2 <=  x417 <= +7.2
-7.2 <=  x418 <= +7.2
-7.2 <=  x419 <= +7.2
-7.2 <=  x420 <= +7.2
-7.2 <=  x421 <= +7.2
-7.2 <=  x422 <= +7.2
-7.2 <=  x423 <= +7.2
-7.2 <=  x424 <= +7.2
-7.2 <=  x425 <= +7.2
-7.2 <=  x426 <= +7.2
-7.2 <=  x427 <= +7.2
-7.2 <=  x428 <= +7.2
-7.2 <=  x429 <= +7.2
-7.2 <=  x430 <= +7.2
-7.2 <=  x431 <= +7.2
-7.2 <=  x432 <= +7.2
-7.2 <=  x433 <= +7.2
-7.2 <=  x434 <= +7.2
-7.2 <=  x435 <= +7.2
-7.2 <=  x436 <= +7.2
-7.2 <=  x437 <= +7.2
-7.2 <=  x438 <= +7.2
-7.2 <=  x439 <= +7.2
-7.2 <=  x440 <= +7.2
-7.2 <=  x441 <= +7.2
-7.2 <=  x442 <= +7.2
-7.2 <=  x443 <= +7.2
-7.2 <=  x444 <= +7.2
-7.2 <=  x445 <= +7.2
-7.2 <=  x446 <= +7.2
-7.2 <=  x447 <= +7.2
-7.2 <=  x448 <= +7.2
-7.2 <=  x449 <= +7.2
-7.2 <=  x450 <= +7.2
-7.2 <=  x451 <= +7.2
-7.2 <=  x452 <= +7.2
-7.2 <=  x453 <= +7.2
-7.2 <=  x454 <= +7.2
-7.2 <=  x455 <= +7.2
-7.2 <=  x456 <= +7.2
-7.2 <=  x457 <= +7.2
-7.2 <=  x458 <= +7.2
-7.2 <=  x459 <= +7.2
-7.2 <=  x460 <= +7.2
-7.2 <=  x461 <= +7.2
-7.2 <=  x462 <= +7.2
-7.2 <=  x463 <= +7.2
-7.2 <=  x464 <= +7.2
-7.2 <=  x465 <= +7.2
-7.2 <=  x466 <= +7.2
-7.2 <=  x467 <= +7.2
-7.2 <=  x468 <= +7.2
-7.2 <=  x469 <= +7.2
-7.2 <=  x470 <= +7.2
-7.2 <=  x471 <= +7.2
-7.2 <=  x472 <= +7.2
-7.2 <=  x473 <= +7.2
-7.2 <=  x474 <= +7.2
-7.2 <=  x475 <= +7.2
-7.2 <=  x476 <= +7.2
-7.2 <=  x477 <= +7.2
-7.2 <=  x478 <= +7.2
-7.2 <=  x479 <= +7.2
-7.2 <=  x480 <= +7.2
-7.2 <=  x481 <= +7.2
-7.2 <=  x482 <= +7.2
-7.2 <=  x483 <= +7.2
-7.2 <=  x484 <= +7.2
-7.2 <=  x485 <= +7.2
-7.2 <=  x486 <= +7.2
-7.2 <=  x487 <= +7.2
-7.2 <=  x488 <= +7.2
-7.2 <=  x489 <= +7.2
-7.2 <=  x490 <= +7.2
-7.2 <=  x491 <= +7.2
-7.2 <=  x492 <= +7.2
-7.2 <=  x493 <= +7.2
-7.2 <=  x494 <= +7.2
-7.2 <=  x495 <= +7.2
-7.2 <=  x496 <= +7.2
-7.2 <=  x497 <= +7.2
-7.2 <=  x498 <= +7.2
-7.2 <=  x499 <= +7.2
-7.2 <=  x500 <= +7.2
-7.2 <=  x501 <= +7.2
-7.2 <=  x502 <= +7.2
-7.2 <=  x503 <= +7.2
-7.2 <=  x504 <= +7.2
-7.2 <=  x505 <= +7.2
-7.2 <=  x506 <= +7.2
-7.2 <=  x507 <= +7.2
-7.2 <=  x508 <= +7.2
-7.2 <=  x509 <= +7.2
-7.2 <=  x510 <= +7.2
-7.2 <=  x511 <= +7.2
-7.2 <=  x512 <= +7.2
-7.2 <=  x513 <= +7.2
-7.2 <=  x514 <= +7.2
-7.2 <=  x515 <= +7.2
-7.2 <=  x516 <= +7.2
-7.2 <=  x517 <= +7.2
-7.2 <=  x518 <= +7.2
-7.2 <=  x519 <= +7.2
-7.2 <=  x520 <= +7.2
-7.2 <=  x521 <= +7.2
-7.2 <=  x522 <= +7.2
-7.2 <=  x523 <= +7.2
-7.2 <=  x524 <= +7.2
-7.2 <=  x525 <= +7.2
-7.2 <=  x526 <= +7.2
-7.2 <=  x527 <= +7.2
-7.2 <=  x528 <= +7.2
-7.2 <=  x529 <= +7.2
-7.2 <=  x530 <= +7.2
-7.2 <=  x531 <= +7.2
-7.2 <=  x532 <= +7.2
-7.2 <=  x533 <= +7.2
-7.2 <=  x534 <= +7.2
-7.2 <=  x535 <= +7.2
-7.2 <=  x536 <= +7.2
-7.2 <=  x537 <= +7.2
-7.2 <=  x538 <= +7.2
-7.2 <=  x539 <= +7.2
-7.2 <=  x540 <= +7.2
-7.2 <=  x541 <= +7.2
-7.2 <=  x542 <= +7.2
-7.2 <=  x543 <= +7.2
-7.2 <=  x544 <= +7.2
end
